; DUP4 POP POP POP ISZERO POP => POP POP POP
(set-option :produce-proofs true)
; 
(set-info :status unknown)
(declare-fun storage_t ((_ BitVec 256) (_ BitVec 256) (_ BitVec 256) (_ BitVec 256) Int (_ BitVec 256)) (_ BitVec 256))
(declare-fun storage_s ((_ BitVec 256) (_ BitVec 256) (_ BitVec 256) (_ BitVec 256) Int (_ BitVec 256)) (_ BitVec 256))
(declare-fun exc_halt_t (Int) Bool)
(declare-fun exc_halt_s (Int) Bool)
(declare-fun stack_t ((_ BitVec 256) (_ BitVec 256) (_ BitVec 256) (_ BitVec 256) Int (_ BitVec 6)) (_ BitVec 256))
(declare-fun stack_s ((_ BitVec 256) (_ BitVec 256) (_ BitVec 256) (_ BitVec 256) Int (_ BitVec 6)) (_ BitVec 256))
(declare-fun sc_t (Int) (_ BitVec 6))
(declare-fun sc_s (Int) (_ BitVec 6))
(declare-fun used_gas_t ((_ BitVec 256) (_ BitVec 256) (_ BitVec 256) (_ BitVec 256) Int) Int)
(declare-fun used_gas_s ((_ BitVec 256) (_ BitVec 256) (_ BitVec 256) (_ BitVec 256) Int) Int)
(assert
 (exists ((x_0 (_ BitVec 256)) (x_1 (_ BitVec 256)) (x_2 (_ BitVec 256)) (x_3 (_ BitVec 256)) )(let (($x5106 (forall ((w (_ BitVec 256)) )(let ((?x759 (storage_t x_0 x_1 x_2 x_3 3 w)))
 (let ((?x4663 (storage_s x_0 x_1 x_2 x_3 6 w)))
 (= ?x4663 ?x759))))
 ))
 (let (($x10336 (exc_halt_t 3)))
 (let (($x772 (exc_halt_s 6)))
 (let (($x2647 (= $x772 $x10336)))
 (let (($x8355 (forall ((n (_ BitVec 6)) )(let ((?x750 (stack_t x_0 x_1 x_2 x_3 3 n)))
 (let ((?x910 (stack_s x_0 x_1 x_2 x_3 6 n)))
 (let (($x10825 (= ?x910 ?x750)))
 (let ((?x2012 (sc_t 3)))
 (let (($x8881 (bvsle ?x2012 n)))
 (or $x8881 $x10825)))))))
 ))
 (let ((?x2012 (sc_t 3)))
 (let ((?x926 (sc_s 6)))
 (let (($x7824 (= ?x926 ?x2012)))
 (let ((?x1098 (used_gas_t x_0 x_1 x_2 x_3 0)))
 (let ((?x8830 (used_gas_s x_0 x_1 x_2 x_3 0)))
 (let (($x6682 (= ?x8830 ?x1098)))
 (let (($x4681 (forall ((w (_ BitVec 256)) )(let ((?x1791 (storage_t x_0 x_1 x_2 x_3 0 w)))
 (let ((?x42 (storage_s x_0 x_1 x_2 x_3 0 w)))
 (= ?x42 ?x1791))))
 ))
 (let (($x56 (exc_halt_t 0)))
 (let (($x57 (exc_halt_s 0)))
 (let (($x58 (= $x57 $x56)))
 (let (($x2684 (forall ((n (_ BitVec 6)) )(let ((?x1651 (stack_t x_0 x_1 x_2 x_3 0 n)))
 (let ((?x2018 (stack_s x_0 x_1 x_2 x_3 0 n)))
 (let (($x7870 (= ?x2018 ?x1651)))
 (let ((?x63 (sc_t 0)))
 (let (($x2733 (bvsle ?x63 n)))
 (or $x2733 $x7870)))))))
 ))
 (let ((?x63 (sc_t 0)))
 (let ((?x72 (sc_s 0)))
 (let (($x73 (= ?x72 ?x63)))
 (let (($x6765 (= $x10336 (or (exc_halt_t 2) (not (bvsle (_ bv0 6) (bvadd (_ bv63 6) (sc_t 2))))))))
 (let (($x8335 (forall ((w (_ BitVec 256)) )(let ((?x4843 (storage_t x_0 x_1 x_2 x_3 2 w)))
 (let ((?x759 (storage_t x_0 x_1 x_2 x_3 3 w)))
 (= ?x759 ?x4843))))
 ))
 (let (($x6788 (forall ((n (_ BitVec 6)) )(let ((?x4056 (sc_t 2)))
 (let ((?x6881 (bvadd (_ bv63 6) ?x4056)))
 (let (($x4901 (bvsle ?x6881 n)))
 (let ((?x2461 (stack_t x_0 x_1 x_2 x_3 2 n)))
 (let ((?x750 (stack_t x_0 x_1 x_2 x_3 3 n)))
 (or (= ?x750 ?x2461) $x4901)))))))
 ))
 (let (($x9104 (= (used_gas_t x_0 x_1 x_2 x_3 3) (+ 2 (used_gas_t x_0 x_1 x_2 x_3 2)))))
 (let (($x903 (exc_halt_t 2)))
 (let (($x2625 (= $x903 (or (exc_halt_t 1) (not (bvsle (_ bv0 6) (bvadd (_ bv63 6) (sc_t 1))))))))
 (let (($x3998 (forall ((w (_ BitVec 256)) )(let ((?x8272 (storage_t x_0 x_1 x_2 x_3 1 w)))
 (let ((?x4843 (storage_t x_0 x_1 x_2 x_3 2 w)))
 (= ?x4843 ?x8272))))
 ))
 (let (($x9185 (forall ((n (_ BitVec 6)) )(let ((?x6747 (stack_t x_0 x_1 x_2 x_3 1 n)))
 (let ((?x2461 (stack_t x_0 x_1 x_2 x_3 2 n)))
 (let ((?x4023 (sc_t 1)))
 (let ((?x6958 (bvadd (_ bv63 6) ?x4023)))
 (let (($x2645 (bvsle ?x6958 n)))
 (or $x2645 (= ?x2461 ?x6747))))))))
 ))
 (let ((?x4023 (sc_t 1)))
 (let ((?x6958 (bvadd (_ bv63 6) ?x4023)))
 (let ((?x4056 (sc_t 2)))
 (let (($x7803 (= ?x4056 ?x6958)))
 (let ((?x5236 (used_gas_t x_0 x_1 x_2 x_3 2)))
 (let (($x1920 (exc_halt_t 1)))
 (let (($x9111 (= $x1920 (or $x56 (not (bvsle (_ bv0 6) (bvadd (_ bv63 6) ?x63)))))))
 (let (($x8080 (forall ((w (_ BitVec 256)) )(let ((?x1791 (storage_t x_0 x_1 x_2 x_3 0 w)))
 (let ((?x8272 (storage_t x_0 x_1 x_2 x_3 1 w)))
 (= ?x8272 ?x1791))))
 ))
 (let (($x3921 (forall ((n (_ BitVec 6)) )(let ((?x63 (sc_t 0)))
 (let ((?x2567 (bvadd (_ bv63 6) ?x63)))
 (let (($x10009 (bvsle ?x2567 n)))
 (let ((?x1651 (stack_t x_0 x_1 x_2 x_3 0 n)))
 (let ((?x6747 (stack_t x_0 x_1 x_2 x_3 1 n)))
 (or (= ?x6747 ?x1651) $x10009)))))))
 ))
 (let ((?x2567 (bvadd (_ bv63 6) ?x63)))
 (let (($x7219 (= ?x4023 ?x2567)))
 (let (($x3773 (= $x772 (or (exc_halt_s 5) (not (bvsle (_ bv0 6) (bvadd (_ bv63 6) (sc_s 5))))))))
 (let (($x9105 (forall ((w (_ BitVec 256)) )(let ((?x3406 (storage_s x_0 x_1 x_2 x_3 5 w)))
 (let ((?x4663 (storage_s x_0 x_1 x_2 x_3 6 w)))
 (= ?x4663 ?x3406))))
 ))
 (let (($x8981 (forall ((n (_ BitVec 6)) )(let ((?x8720 (stack_s x_0 x_1 x_2 x_3 5 n)))
 (let ((?x910 (stack_s x_0 x_1 x_2 x_3 6 n)))
 (or (= ?x910 ?x8720) (bvsle (bvadd (_ bv63 6) (sc_s 5)) n)))))
 ))
 (let (($x10298 (= (used_gas_s x_0 x_1 x_2 x_3 6) (+ 2 (used_gas_s x_0 x_1 x_2 x_3 5)))))
 (let (($x3979 (exc_halt_s 5)))
 (let (($x7980 (= $x3979 (or (exc_halt_s 4) (not (bvsle (_ bv0 6) (bvadd (_ bv63 6) (sc_s 4))))))))
 (let (($x6976 (forall ((w (_ BitVec 256)) )(let ((?x1716 (storage_s x_0 x_1 x_2 x_3 4 w)))
 (let ((?x3406 (storage_s x_0 x_1 x_2 x_3 5 w)))
 (= ?x3406 ?x1716))))
 ))
 (let (($x2361 (forall ((n (_ BitVec 6)) )(let ((?x3422 (stack_s x_0 x_1 x_2 x_3 4 n)))
 (let ((?x8720 (stack_s x_0 x_1 x_2 x_3 5 n)))
 (or (bvsle (bvadd (_ bv63 6) (sc_s 4)) n) (= ?x8720 ?x3422)))))
 ))
 (let ((?x4305 (sc_s 4)))
 (let ((?x805 (sc_s 5)))
 (let (($x6845 (= ?x805 ?x4305)))
 (let ((?x4288 (used_gas_s x_0 x_1 x_2 x_3 5)))
 (let ((?x942 (ite (= (stack_s x_0 x_1 x_2 x_3 4 (bvadd (_ bv63 6) ?x4305)) (_ bv0 256)) (_ bv1 256) (_ bv0 256))))
 (let (($x64 (exc_halt_s 4)))
 (let (($x7658 (= $x64 (or (exc_halt_s 3) (not (bvsle (_ bv0 6) (bvadd (_ bv63 6) (sc_s 3))))))))
 (let (($x7570 (forall ((w (_ BitVec 256)) )(let ((?x8510 (storage_s x_0 x_1 x_2 x_3 3 w)))
 (let ((?x1716 (storage_s x_0 x_1 x_2 x_3 4 w)))
 (= ?x1716 ?x8510))))
 ))
 (let (($x2549 (forall ((n (_ BitVec 6)) )(let ((?x275 (sc_s 3)))
 (let ((?x2861 (bvadd (_ bv63 6) ?x275)))
 (let (($x9361 (bvsle ?x2861 n)))
 (let ((?x8550 (stack_s x_0 x_1 x_2 x_3 3 n)))
 (let ((?x3422 (stack_s x_0 x_1 x_2 x_3 4 n)))
 (or (= ?x3422 ?x8550) $x9361)))))))
 ))
 (let ((?x9082 (used_gas_s x_0 x_1 x_2 x_3 4)))
 (let (($x292 (exc_halt_s 3)))
 (let (($x7790 (= $x292 (or (exc_halt_s 2) (not (bvsle (_ bv0 6) (bvadd (_ bv63 6) (sc_s 2))))))))
 (let (($x8255 (forall ((w (_ BitVec 256)) )(let ((?x8718 (storage_s x_0 x_1 x_2 x_3 2 w)))
 (let ((?x8510 (storage_s x_0 x_1 x_2 x_3 3 w)))
 (= ?x8510 ?x8718))))
 ))
 (let (($x9446 (forall ((n (_ BitVec 6)) )(let ((?x218 (sc_s 2)))
 (let ((?x6327 (bvadd (_ bv63 6) ?x218)))
 (let (($x9335 (bvsle ?x6327 n)))
 (let ((?x6301 (stack_s x_0 x_1 x_2 x_3 2 n)))
 (let ((?x8550 (stack_s x_0 x_1 x_2 x_3 3 n)))
 (or (= ?x8550 ?x6301) $x9335)))))))
 ))
 (let ((?x8452 (used_gas_s x_0 x_1 x_2 x_3 3)))
 (let (($x247 (exc_halt_s 2)))
 (let (($x9112 (= $x247 (or (exc_halt_s 1) (not (bvsle (_ bv0 6) (bvadd (_ bv63 6) (sc_s 1))))))))
 (let (($x3226 (forall ((w (_ BitVec 256)) )(let ((?x9216 (storage_s x_0 x_1 x_2 x_3 1 w)))
 (let ((?x8718 (storage_s x_0 x_1 x_2 x_3 2 w)))
 (= ?x8718 ?x9216))))
 ))
 (let (($x2752 (forall ((n (_ BitVec 6)) )(let ((?x8314 (stack_s x_0 x_1 x_2 x_3 1 n)))
 (let ((?x6301 (stack_s x_0 x_1 x_2 x_3 2 n)))
 (let ((?x154 (sc_s 1)))
 (let ((?x5240 (bvadd (_ bv63 6) ?x154)))
 (let (($x2656 (bvsle ?x5240 n)))
 (or $x2656 (= ?x6301 ?x8314))))))))
 ))
 (let ((?x154 (sc_s 1)))
 (let ((?x5240 (bvadd (_ bv63 6) ?x154)))
 (let ((?x218 (sc_s 2)))
 (let (($x2152 (= ?x218 ?x5240)))
 (let ((?x7809 (used_gas_s x_0 x_1 x_2 x_3 2)))
 (let (($x9528 (not (= ((_ extract 6 6) (bvadd (_ bv1 7) (concat (_ bv0 1) ?x72))) (_ bv0 1)))))
 (let (($x189 (exc_halt_s 1)))
 (let (($x7649 (forall ((w (_ BitVec 256)) )(let ((?x42 (storage_s x_0 x_1 x_2 x_3 0 w)))
 (let ((?x9216 (storage_s x_0 x_1 x_2 x_3 1 w)))
 (= ?x9216 ?x42))))
 ))
 (let (($x9587 (forall ((n (_ BitVec 6)) )(let ((?x2018 (stack_s x_0 x_1 x_2 x_3 0 n)))
 (let ((?x8314 (stack_s x_0 x_1 x_2 x_3 1 n)))
 (or (= ?x8314 ?x2018) (bvsle (bvadd (_ bv60 6) (sc_s 0)) n)))))
 ))
 (let (($x10428 (= ?x154 (bvadd (_ bv1 6) ?x72))))
 (let (($x3367 (= (stack_s x_0 x_1 x_2 x_3 1 (bvadd (_ bv63 6) ?x72)) (stack_s x_0 x_1 x_2 x_3 0 (bvadd (_ bv63 6) ?x72)))))
 (let (($x748 (= (stack_s x_0 x_1 x_2 x_3 1 (bvadd (_ bv62 6) ?x72)) (stack_s x_0 x_1 x_2 x_3 0 (bvadd (_ bv62 6) ?x72)))))
 (let (($x2568 (= (stack_s x_0 x_1 x_2 x_3 1 (bvadd (_ bv61 6) ?x72)) (stack_s x_0 x_1 x_2 x_3 0 (bvadd (_ bv61 6) ?x72)))))
 (let ((?x9046 (bvadd (_ bv60 6) ?x72)))
 (let ((?x8890 (stack_s x_0 x_1 x_2 x_3 0 ?x9046)))
 (let (($x9188 (forall ((w (_ BitVec 256)) )(let ((?x42 (storage_s x_0 x_1 x_2 x_3 0 w)))
 (= ?x42 (_ bv0 256))))
 ))
 (let (($x8560 (= ?x8830 0)))
 (let (($x3117 (not $x57)))
 (let (($x5972 (= (stack_s x_0 x_1 x_2 x_3 0 (_ bv3 6)) x_3)))
 (let (($x5447 (= (stack_s x_0 x_1 x_2 x_3 0 (_ bv2 6)) x_2)))
 (let (($x3532 (= (stack_s x_0 x_1 x_2 x_3 0 (_ bv1 6)) x_1)))
 (let (($x2541 (= (stack_s x_0 x_1 x_2 x_3 0 (_ bv0 6)) x_0)))
 (let (($x9269 (= ?x72 (_ bv4 6))))
 (and $x9269 $x2541 $x3532 $x5447 $x5972 $x3117 $x8560 $x9188 (= (stack_s x_0 x_1 x_2 x_3 1 ?x5240) ?x8890) (= (stack_s x_0 x_1 x_2 x_3 1 ?x9046) ?x8890) $x2568 $x748 $x3367 (= (used_gas_s x_0 x_1 x_2 x_3 1) (+ 3 ?x8830)) $x10428 $x9587 $x7649 (= $x189 (or $x57 (not (bvsle (_ bv0 6) ?x9046)) $x9528)) (= ?x7809 (+ 2 (used_gas_s x_0 x_1 x_2 x_3 1))) $x2152 $x2752 $x3226 $x9112 (= ?x8452 (+ 2 ?x7809)) (= (sc_s 3) (bvadd (_ bv63 6) ?x218)) $x9446 $x8255 $x7790 (= ?x9082 (+ 2 ?x8452)) (= ?x4305 (bvadd (_ bv63 6) (sc_s 3))) $x2549 $x7570 $x7658 (= (stack_s x_0 x_1 x_2 x_3 5 (bvadd (_ bv63 6) ?x805)) ?x942) (= ?x4288 (+ 3 ?x9082)) $x6845 $x2361 $x6976 $x7980 $x10298 (= ?x926 (bvadd (_ bv63 6) ?x805)) $x8981 $x9105 $x3773 (= (used_gas_t x_0 x_1 x_2 x_3 1) (+ 2 ?x1098)) $x7219 $x3921 $x8080 $x9111 (= ?x5236 (+ 2 (used_gas_t x_0 x_1 x_2 x_3 1))) $x7803 $x9185 $x3998 $x2625 $x9104 (= ?x2012 (bvadd (_ bv63 6) ?x4056)) $x6788 $x8335 $x6765 $x73 $x2684 $x58 $x4681 $x6682 (not (and $x7824 $x8355 $x2647 $x5106))))))))))))))))))))))))))))))))))))))))))))))))))))))))))))))))))))))))))))))))))))))))))))
 )
(check-sat)
(get-proof)
